SAT
-1 -100 -99 -98 -97 -96 48 -80 95 68 38 -74 77 64 36 37 75 43 -60 15 -32 54 -78 29 -17 45 23 -25 -26 79 -11 91 -53 -3 -57 20 -44 42 27 85 71 -2 -76 -22 -12 89 14 46 66 -24 52 -39 41 -61 -50 6 -34 -70 -31 83 -35 67 81 -82 -9 -16 -51 -58 73 -18 -8 84 28 40 56 90 -72 19 59 13 92 -65 33 -55 -21 87 62 63 -10 93 -49 -88 -47 -86 -94 5 7 30 -69 4 0
